p cnf 83 683
9 26 34 58 67 0
1 19 68 0
10 28 42 51 60 0
3 20 36 0
4 29 44 53 62 0
21 37 54 63 80 0
22 38 45 64 81 0
6 23 39 46 55 0
7 16 0
48 57 0
-1 -10 2 0
-1 -11 3 0
-1 -12 4 0
-1 -13 0
-1 -14 5 0
-1 -15 6 0
-1 -16 7 0
-1 -17 8 0
-2 -19 1 0
-2 -20 3 0
-2 4 0
-2 -21 0
-2 -22 5 0
-2 -23 6 0
-2 -24 7 0
-2 -25 8 0
-3 -27 1 0
-3 -28 2 0
-3 -29 4 0
-3 -30 0
-3 -31 5 0
-3 -32 6 0
-3 -33 8 0
-4 -35 1 0
-4 -36 3 0
-4 -37 0
-4 -38 5 0
-4 -39 6 0
-4 -40 7 0
-5 -50 1 0
-5 -51 2 0
-5 -52 3 0
-5 -53 4 0
-5 -54 0
-5 -55 6 0
-5 -56 7 0
-5 -57 8 0
-6 -59 1 0
-6 -60 2 0
-6 -61 3 0
-6 -62 4 0
-6 -63 0
-6 -64 5 0
-6 -65 7 0
-6 -66 8 0
-7 -68 1 0
-7 -69 2 0
-7 3 0
-7 -70 4 0
-7 -71 0
-7 -72 5 0
-7 -73 6 0
-7 -74 8 0
-8 -76 1 0
-8 -77 2 0
-8 -78 3 0
-8 -79 4 0
-8 -80 0
-8 -81 5 0
-8 -82 6 0
-8 -83 7 0
-9 -2 10 0
-9 -3 11 0
-9 -4 12 0
-9 -5 14 0
-9 -6 15 0
-9 -7 16 0
-9 -8 17 0
-10 -18 9 0
-10 -20 11 0
-10 12 0
-10 -21 13 0
-10 -22 14 0
-10 -23 15 0
-10 -24 16 0
-10 -25 17 0
-11 -26 9 0
-11 -28 10 0
-11 -29 12 0
-11 -30 13 0
-11 -31 14 0
-11 -32 15 0
-11 -33 17 0
-12 -34 9 0
-12 -36 11 0
-12 -37 13 0
-12 -38 14 0
-12 -39 15 0
-12 -40 16 0
-13 9 0
-13 -42 10 0
-13 -43 11 0
-13 -44 12 0
-13 -45 14 0
-13 -46 15 0
-13 -47 16 0
-13 -48 17 0
-14 -49 9 0
-14 -51 10 0
-14 -52 11 0
-14 -53 12 0
-14 -54 13 0
-14 -55 15 0
-14 -56 16 0
-14 -57 17 0
-15 -58 9 0
-15 -60 10 0
-15 -61 11 0
-15 -62 12 0
-15 -63 13 0
-15 -64 14 0
-15 -65 16 0
-15 -66 17 0
-16 -67 9 0
-16 -69 10 0
-16 11 0
-16 -70 12 0
-16 -71 13 0
-16 -72 14 0
-16 -73 15 0
-16 -74 17 0
-17 -75 9 0
-17 -77 10 0
-17 -78 11 0
-17 -79 12 0
-17 -80 13 0
-17 -81 14 0
-17 -82 15 0
-17 -83 16 0
-18 -1 19 0
-18 -3 20 0
-18 -5 22 0
-18 -6 23 0
-18 -7 24 0
-18 -8 25 0
-19 -9 18 0
-19 -11 20 0
-19 -13 21 0
-19 -14 22 0
-19 -15 23 0
-19 -16 24 0
-19 -17 25 0
-20 -26 18 0
-20 -27 19 0
-20 -30 21 0
-20 -31 22 0
-20 -32 23 0
-20 -33 25 0
-34 18 0
-35 19 0
-36 20 0
-37 21 0
-38 22 0
-39 23 0
-40 24 0
-21 18 0
-21 -41 19 0
-21 -43 20 0
-21 -45 22 0
-21 -46 23 0
-21 -47 24 0
-21 -48 25 0
-22 -49 18 0
-22 -50 19 0
-22 -52 20 0
-22 -54 21 0
-22 -55 23 0
-22 -56 24 0
-22 -57 25 0
-23 -58 18 0
-23 -59 19 0
-23 -61 20 0
-23 -63 21 0
-23 -64 22 0
-23 -65 24 0
-23 -66 25 0
-24 -67 18 0
-24 -68 19 0
-24 20 0
-24 -71 21 0
-24 -72 22 0
-24 -73 23 0
-24 -74 25 0
-25 -75 18 0
-25 -76 19 0
-25 -78 20 0
-25 -80 21 0
-25 -81 22 0
-25 -82 23 0
-25 -83 24 0
-26 -1 27 0
-26 -2 28 0
-26 -4 29 0
-26 -5 31 0
-26 -6 32 0
-26 -7 0
-26 -8 33 0
-27 -9 26 0
-27 -10 28 0
-27 -12 29 0
-27 -13 30 0
-27 -14 31 0
-27 -15 32 0
-27 -16 0
-27 -17 33 0
-28 -18 26 0
-28 -19 27 0
-28 29 0
-28 -21 30 0
-28 -22 31 0
-28 -23 32 0
-28 -24 0
-28 -25 33 0
-29 -34 26 0
-29 -35 27 0
-29 -37 30 0
-29 -38 31 0
-29 -39 32 0
-29 -40 0
-30 26 0
-30 -41 27 0
-30 -42 28 0
-30 -44 29 0
-30 -45 31 0
-30 -46 32 0
-30 -47 0
-30 -48 33 0
-31 -49 26 0
-31 -50 27 0
-31 -51 28 0
-31 -53 29 0
-31 -54 30 0
-31 -55 32 0
-31 -56 0
-31 -57 33 0
-32 -58 26 0
-32 -59 27 0
-32 -60 28 0
-32 -62 29 0
-32 -63 30 0
-32 -64 31 0
-32 -65 0
-32 -66 33 0
-33 -75 26 0
-33 -76 27 0
-33 -77 28 0
-33 -79 29 0
-33 -80 30 0
-33 -81 31 0
-33 -82 32 0
-33 -83 0
-34 -1 35 0
-34 -2 0
-34 -3 36 0
-34 -5 38 0
-34 -6 39 0
-34 -7 40 0
-34 -8 0
-35 -9 34 0
-35 -10 0
-35 -11 36 0
-35 -13 37 0
-35 -14 38 0
-35 -15 39 0
-35 -16 40 0
-35 -17 0
-36 -26 34 0
-36 -27 35 0
-36 -28 0
-36 -30 37 0
-36 -31 38 0
-36 -32 39 0
-36 -33 0
-37 34 0
-37 -41 35 0
-37 -42 0
-37 -43 36 0
-37 -45 38 0
-37 -46 39 0
-37 -47 40 0
-37 -48 0
-38 -49 34 0
-38 -50 35 0
-38 -51 0
-38 -52 36 0
-38 -54 37 0
-38 -55 39 0
-38 -56 40 0
-38 -57 0
-39 -58 34 0
-39 -59 35 0
-39 -60 0
-39 -61 36 0
-39 -63 37 0
-39 -64 38 0
-39 -65 40 0
-39 -66 0
-40 -67 34 0
-40 -68 35 0
-40 -69 0
-40 36 0
-40 -71 37 0
-40 -72 38 0
-40 -73 39 0
-40 -74 0
-1 41 0
-2 42 0
-3 43 0
-4 44 0
-5 45 0
-6 46 0
-7 47 0
-8 48 0
-41 -10 42 0
-41 -11 43 0
-41 -12 44 0
-41 -14 45 0
-41 -15 46 0
-41 -16 47 0
-41 -17 48 0
-42 -19 41 0
-42 -20 43 0
-42 44 0
-42 -22 45 0
-42 -23 46 0
-42 -24 47 0
-42 -25 48 0
-43 -27 41 0
-43 -28 42 0
-43 -29 44 0
-43 -31 45 0
-43 -32 46 0
-43 -33 48 0
-44 -35 41 0
-44 -36 43 0
-44 -38 45 0
-44 -39 46 0
-44 -40 47 0
-45 -50 41 0
-45 -51 42 0
-45 -52 43 0
-45 -53 44 0
-45 -55 46 0
-45 -56 47 0
-45 -57 48 0
-46 -59 41 0
-46 -60 42 0
-46 -61 43 0
-46 -62 44 0
-46 -64 45 0
-46 -65 47 0
-46 -66 48 0
-47 -68 41 0
-47 -69 42 0
-47 43 0
-47 -70 44 0
-47 -72 45 0
-47 -73 46 0
-47 -74 48 0
-48 -76 41 0
-48 -77 42 0
-48 -78 43 0
-48 -79 44 0
-48 -81 45 0
-48 -82 46 0
-48 -83 47 0
-49 -1 50 0
-49 -2 51 0
-49 -3 52 0
-49 -4 53 0
-49 -6 55 0
-49 -7 56 0
-49 -8 57 0
-50 -9 49 0
-50 -10 51 0
-50 -11 52 0
-50 -12 53 0
-50 -13 54 0
-50 -15 55 0
-50 -16 56 0
-50 -17 57 0
-51 -18 49 0
-51 -19 50 0
-51 -20 52 0
-51 53 0
-51 -21 54 0
-51 -23 55 0
-51 -24 56 0
-51 -25 57 0
-52 -26 49 0
-52 -27 50 0
-52 -28 51 0
-52 -29 53 0
-52 -30 54 0
-52 -32 55 0
-52 -33 57 0
-53 -34 49 0
-53 -35 50 0
-53 -36 52 0
-53 -37 54 0
-53 -39 55 0
-53 -40 56 0
-54 49 0
-54 -41 50 0
-54 -42 51 0
-54 -43 52 0
-54 -44 53 0
-54 -46 55 0
-54 -47 56 0
-54 -48 57 0
-55 -58 49 0
-55 -59 50 0
-55 -60 51 0
-55 -61 52 0
-55 -62 53 0
-55 -63 54 0
-55 -65 56 0
-55 -66 57 0
-56 -67 49 0
-56 -68 50 0
-56 -69 51 0
-56 52 0
-56 -70 53 0
-56 -71 54 0
-56 -73 55 0
-56 -74 57 0
-57 -75 49 0
-57 -76 50 0
-57 -77 51 0
-57 -78 52 0
-57 -79 53 0
-57 -80 54 0
-57 -82 55 0
-57 -83 56 0
-58 -1 59 0
-58 -2 60 0
-58 -3 61 0
-58 -4 62 0
-58 -5 64 0
-58 -7 65 0
-58 -8 66 0
-59 -9 58 0
-59 -10 60 0
-59 -11 61 0
-59 -12 62 0
-59 -13 63 0
-59 -14 64 0
-59 -16 65 0
-59 -17 66 0
-60 -18 58 0
-60 -19 59 0
-60 -20 61 0
-60 62 0
-60 -21 63 0
-60 -22 64 0
-60 -24 65 0
-60 -25 66 0
-61 -26 58 0
-61 -27 59 0
-61 -28 60 0
-61 -29 62 0
-61 -30 63 0
-61 -31 64 0
-61 -33 66 0
-62 -34 58 0
-62 -35 59 0
-62 -36 61 0
-62 -37 63 0
-62 -38 64 0
-62 -40 65 0
-63 58 0
-63 -41 59 0
-63 -42 60 0
-63 -43 61 0
-63 -44 62 0
-63 -45 64 0
-63 -47 65 0
-63 -48 66 0
-64 -49 58 0
-64 -50 59 0
-64 -51 60 0
-64 -52 61 0
-64 -53 62 0
-64 -54 63 0
-64 -56 65 0
-64 -57 66 0
-65 -67 58 0
-65 -68 59 0
-65 -69 60 0
-65 61 0
-65 -70 62 0
-65 -71 63 0
-65 -72 64 0
-65 -74 66 0
-66 -75 58 0
-66 -76 59 0
-66 -77 60 0
-66 -78 61 0
-66 -79 62 0
-66 -80 63 0
-66 -81 64 0
-66 -83 65 0
-67 -1 68 0
-67 -2 69 0
-67 -4 70 0
-67 -5 72 0
-67 -6 73 0
-67 -8 74 0
-68 -9 67 0
-68 -10 69 0
-68 -12 70 0
-68 -13 71 0
-68 -14 72 0
-68 -15 73 0
-68 -17 74 0
-69 -18 67 0
-69 -19 68 0
-69 70 0
-69 -21 71 0
-69 -22 72 0
-69 -23 73 0
-69 -25 74 0
-26 67 0
-27 68 0
-28 69 0
-29 70 0
-30 71 0
-31 72 0
-32 73 0
-33 74 0
-70 -34 67 0
-70 -35 68 0
-70 -37 71 0
-70 -38 72 0
-70 -39 73 0
-71 67 0
-71 -41 68 0
-71 -42 69 0
-71 -44 70 0
-71 -45 72 0
-71 -46 73 0
-71 -48 74 0
-72 -49 67 0
-72 -50 68 0
-72 -51 69 0
-72 -53 70 0
-72 -54 71 0
-72 -55 73 0
-72 -57 74 0
-73 -58 67 0
-73 -59 68 0
-73 -60 69 0
-73 -62 70 0
-73 -63 71 0
-73 -64 72 0
-73 -66 74 0
-74 -75 67 0
-74 -76 68 0
-74 -77 69 0
-74 -79 70 0
-74 -80 71 0
-74 -81 72 0
-74 -82 73 0
-75 -1 76 0
-75 -2 77 0
-75 -3 78 0
-75 -4 79 0
-75 -5 81 0
-75 -6 82 0
-75 -7 83 0
-76 -9 75 0
-76 -10 77 0
-76 -11 78 0
-76 -12 79 0
-76 -13 80 0
-76 -14 81 0
-76 -15 82 0
-76 -16 83 0
-77 -18 75 0
-77 -19 76 0
-77 -20 78 0
-77 79 0
-77 -21 80 0
-77 -22 81 0
-77 -23 82 0
-77 -24 83 0
-78 -26 75 0
-78 -27 76 0
-78 -28 77 0
-78 -29 79 0
-78 -30 80 0
-78 -31 81 0
-78 -32 82 0
-79 -34 75 0
-79 -35 76 0
-79 -36 78 0
-79 -37 80 0
-79 -38 81 0
-79 -39 82 0
-79 -40 83 0
-80 75 0
-80 -41 76 0
-80 -42 77 0
-80 -43 78 0
-80 -44 79 0
-80 -45 81 0
-80 -46 82 0
-80 -47 83 0
-81 -49 75 0
-81 -50 76 0
-81 -51 77 0
-81 -52 78 0
-81 -53 79 0
-81 -54 80 0
-81 -55 82 0
-81 -56 83 0
-82 -58 75 0
-82 -59 76 0
-82 -60 77 0
-82 -61 78 0
-82 -62 79 0
-82 -63 80 0
-82 -64 81 0
-82 -65 83 0
-83 -67 75 0
-83 -68 76 0
-83 -69 77 0
-83 78 0
-83 -70 79 0
-83 -71 80 0
-83 -72 81 0
-83 -73 82 0
-1 -9 0
-2 -18 0
-3 -26 0
-4 -34 0
-5 -49 0
-6 -58 0
-7 -67 0
-8 -75 0
-10 -19 0
-11 -27 0
-12 -35 0
-13 -41 0
-14 -50 0
-15 -59 0
-16 -68 0
-17 -76 0
-20 -28 0
-21 -42 0
-22 -51 0
-23 -60 0
-24 -69 0
-25 -77 0
-29 -36 0
-30 -43 0
-31 -52 0
-32 -61 0
-33 -78 0
-37 -44 0
-38 -53 0
-39 -62 0
-40 -70 0
-45 -54 0
-46 -63 0
-47 -71 0
-48 -80 0
-55 -64 0
-56 -72 0
-57 -81 0
-65 -73 0
-66 -82 0
-74 -83 0
